4 
5  07 22 37 50 57 
6  05 12 22 29 37 44 52 59 
7  07 14 22 29 37 44 52 59 
8  07 14 22 29 37 44 52 59 
9  07 14 22 29 37 44 56 
10  03 11 18 26 33 41 48 56 
11  03 11 18 26 33 41 48 56 
12  03 11 18 26 33 41 48 56 
13  03 11 18 26 33 41 48 56 
14  03 11 18 26 33 41 48 56 
15  07 15 22 29 37 45 52 
16  00 07 15 22 30 37 45 52 
17  00 07 15 22 30 37 45 52 
18  01 07 16 22 31 37 46 52 
19  00 11 18 26 33 41 48 58 
20  08 16 24 38 52 
21  07 22 37 52 
22  07 18 33 48 
23  03 23 
0 
